
Gurobi 9.5.1 (linux64) logging started Thu 09 Jun 2022 08:07:40 PM MST

Set parameter LogFile to value "/home/local/ASUAD/kmajd1/NNRepLayer_v2/demos/walking_example/dynamic_constraint/repair_net/logs/opt_log_6_9_2022_20_7_3.log"
Gurobi Optimizer version 9.5.1 build v9.5.1rc2 (linux64)
Thread count: 48 physical cores, 96 logical processors, using up to 32 threads
Optimize a model with 37077 rows, 22792 columns and 105173 nonzeros
Model fingerprint: 0x68591e22
Model has 136 quadratic objective terms
Variable types: 9832 continuous, 12960 integer (12960 binary)
Coefficient statistics:
  Matrix range     [7e-04, 5e+01]
  Objective range  [2e-02, 3e+00]
  QObjective range [1e-01, 2e+00]
  Bounds range     [4e-01, 5e+01]
  RHS range        [2e-04, 5e+01]
Presolve removed 22284 rows and 8862 columns
Presolve time: 0.15s
Presolved: 14793 rows, 13930 columns, 69568 nonzeros
Presolved model has 136 quadratic objective terms
Variable types: 9620 continuous, 4310 integer (4310 binary)
Root relaxation presolve removed 4310 rows and 4310 columns
Root relaxation presolved: 10483 rows, 9620 columns, 60948 nonzeros
Root relaxation presolved model has 136 quadratic objective terms


Root relaxation: objective 4.754099e+01, 12030 iterations, 1.09 seconds (2.85 work units)

    Nodes    |    Current Node    |     Objective Bounds      |     Work
 Expl Unexpl |  Obj  Depth IntInf | Incumbent    BestBd   Gap | It/Node Time

     0     0   47.54099    0  794          -   47.54099      -     -    3s
     0     0   47.54539    0  774          -   47.54539      -     -   12s
     0     0   47.54539    0  773          -   47.54539      -     -   12s
     0     0   47.54769    0  853          -   47.54769      -     -   13s
     0     0   47.54788    0  843          -   47.54788      -     -   13s
     0     0   47.54788    0  839          -   47.54788      -     -   13s
H    0     0                      77.6103974   47.54788  38.7%     -   28s
     0     2   47.54788    0  839   77.61040   47.54788  38.7%     -   28s
     3     8   47.57032    2 1073   77.61040   47.54788  38.7%  1007   30s
H   31    64                      77.5851840   47.54909  38.7%  1475   47s
H   32    64                      77.5845748   47.54909  38.7%  1504   47s
H   33    64                      77.3786049   47.54909  38.6%  1531   47s
H   35    64                      77.2261629   47.54909  38.4%  1575   47s
H   40    64                      77.1590728   47.54909  38.4%  1658   47s
H   42    64                      75.9671382   47.54909  37.4%  1689   47s
    63    96   47.57032    6 1231   75.96714   47.54968  37.4%  1973   51s
H  159   192                      75.9343009   47.54968  37.4%  1414   79s
H  161   192                      75.9218352   47.54968  37.4%  1399   79s
H  162   192                      75.7077002   47.54968  37.2%  1395   79s
   191   224   47.63673    8 1310   75.70770   47.54968  37.2%  1236  114s
H  193   224                      54.7612517   47.54968  13.2%  1223  114s
   223   285   47.57032    9 1224   54.76125   47.54968  13.2%  1099  115s
   284   346   47.57032   10 1223   54.76125   47.54968  13.2%   939  121s
   773   904   47.57032   25 1240   54.76125   47.54968  13.2%   487  125s
H 1337  1370                      54.7608404   47.54968  13.2%   355  147s
H 1339  1370                      54.7606705   47.54968  13.2%   355  147s
H 1341  1370                      54.7158154   47.54968  13.1%   354  147s
H 1343  1370                      54.7127609   47.54968  13.1%   355  147s
H 1365  1370                      54.6988026   47.54968  13.1%   350  147s

Cutting planes:
  Gomory: 1
  Cover: 37
  Implied bound: 92
  MIR: 10445
  Flow cover: 5106
  Relax-and-lift: 308

Explored 1369 nodes (500673 simplex iterations) in 147.72 seconds (336.08 work units)
Thread count was 32 (of 96 available processors)

Solution count 10: 54.6988 54.7128 54.7158 ... 75.9671

Solve interrupted
Best objective 5.469880260081e+01, best bound 4.754968143404e+01, gap 13.0700%
